c File: instances/28_0.20_1.col
c
c Description: Random graph of size 28 vertices and P(0.2) of edges between any two vertices.
p col 28 378
e 1 2
e 1 6
e 1 10
e 1 12
e 1 13
e 1 14
e 1 17
e 1 18
e 1 20
e 1 22
e 1 25
e 2 7
e 2 9
e 2 14
e 2 25
e 2 26
e 3 8
e 3 17
e 3 19
e 3 20
e 3 21
e 3 28
e 4 9
e 4 13
e 4 14
e 4 18
e 4 22
e 5 12
e 5 14
e 6 10
e 6 13
e 6 21
e 6 27
e 7 10
e 7 12
e 7 18
e 7 25
e 8 25
e 9 13
e 9 18
e 9 25
e 11 20
e 12 16
e 12 20
e 12 25
e 13 16
e 13 17
e 13 28
e 14 15
e 14 23
e 14 25
e 14 28
e 15 18
e 15 26
e 16 17
e 16 26
e 17 27
e 17 28
e 18 20
e 18 27
e 20 21
e 20 22
e 20 26
e 21 22
e 21 24
e 22 23
e 22 24
e 22 26
e 22 27
e 24 27
e 25 28
e 26 27
e 27 28